Minimize
goal: + 5000 y0 + 5000 y1 + 5000 y2 + 5000 y3 + 1000 y4 + 5000 y5 + 5000 y6 + 5000 y7 + 5000 y8 + 5000 y9 + 5000 y10 + 5000 y11 + 5000 y12 + 5000 y13 + 1000 y14 + 5000 y15 + 5000 y16 + 5000 y17 + 1000 y18 + 5000 y19 + 5000 y20 + 5000 y21 + 5000 y22 + 5000 y23 + 5000 y24 + 5000 y25 + 1000 y26 + 5000 y27 + 5000 y28 + 5000 y29

Subject To
  - 10000 x0   + 5000 y0   + 5000 y1 > 0
  - 10000 x1   + 5000 y0   + 5000 y2 > 0
  - 6000 x2   + 5000 y3   + 1000 y4 > 0
  - 10000 x3   + 5000 y3   + 5000 y5 > 0
  + 1 x0   + 1 x1   + 1 x2   + 1 x3 = 1
  - 10000 x4   + 5000 y6   + 5000 y7 > 0
  - 10000 x5   + 5000 y6   + 5000 y8 > 0
  - 10000 x6   + 5000 y9   + 5000 y10 > 0
  - 10000 x7   + 5000 y11   + 5000 y12 > 0
  + 1 x4   + 1 x5   + 1 x6   + 1 x7 = 1
  - 6000 x8   + 5000 y13   + 1000 y14 > 0
  - 10000 x9   + 5000 y15   + 5000 y16 > 0
  + 1 x8   + 1 x9 = 1
  - 10000 x10   + 5000 y9   + 5000 y17 > 0
  - 6000 x11   + 5000 y11   + 1000 y18 > 0
  + 1 x10   + 1 x11 = 1
  - 10000 x12   + 5000 y13   + 5000 y19 > 0
  - 10000 x13   + 5000 y15   + 5000 y20 > 0
  - 10000 x14   + 5000 y21   + 5000 y22 > 0
  - 10000 x15   + 5000 y21   + 5000 y23 > 0
  + 1 x12   + 1 x13   + 1 x14   + 1 x15 = 1
  - 10000 x16   + 5000 y24   + 5000 y25 > 0
  - 6000 x17   + 5000 y24   + 1000 y26 > 0
  - 10000 x18   + 5000 y27   + 5000 y28 > 0
  - 10000 x19   + 5000 y27   + 5000 y29 > 0
  + 1 x16   + 1 x17   + 1 x18   + 1 x19 = 1

BINARY
x0
x1
x2
x3
x4
x5
x6
x7
x8
x9
x10
x11
x12
x13
x14
x15
x16
x17
x18
x19
y0
y1
y2
y3
y4
y5
y6
y7
y8
y9
y10
y11
y12
y13
y14
y15
y16
y17
y18
y19
y20
y21
y22
y23
y24
y25
y26
y27
y28
y29